sat
(:elim-unconstrained      82
 :max-memory              81.06
 :memory                  30.96
 :num-allocs              867355351
 :rlimit-count            5530380
 :sat-backjumps           9070
 :sat-backtracks          193
 :sat-conflicts           9263
 :sat-decisions           73276
 :sat-del-clause          133460
 :sat-elim-bool-vars-res  23377
 :sat-elim-clauses        6131
 :sat-elim-literals       4440
 :sat-minimized-lits      26856
 :sat-mk-clause-2ary      75669
 :sat-mk-clause-3ary      39145
 :sat-mk-clause-nary      206252
 :sat-mk-var              47898
 :sat-probing-assigned    1393
 :sat-propagations-2ary   1395663
 :sat-propagations-nary   2619955
 :sat-restarts            1012
 :sat-scc-elim-binary     312
 :sat-scc-elim-vars       124
 :sat-subs-resolution     2031
 :sat-subs-resolution-dyn 1115
 :sat-subsumed            29331
 :sat-units               1507
 :time                    3.58
 :total-time              3.63)
